objective value:                                   22
lambda[1,44]*                                       2 	(obj:0)
lambda[1,47]*                                       1 	(obj:0)
lambda[1,48]*                                       2 	(obj:0)
lambda[0,70]*                                       1 	(obj:0)
lambda[1,57]*                                       2 	(obj:11)
lambda[0,108]*                                      1 	(obj:0)
lambda[0,111]*                                      1 	(obj:0)
lambda[0,116]*                                      3 	(obj:0)
lambda[0,129]*                                      1 	(obj:0)
lambda[0,153]*                                      1 	(obj:0)
lambda[1,64]*                                       2 	(obj:0)
lambda[0,184]*                                      2 	(obj:0)
lambda[1,70]*                                       1 	(obj:0)
